55
9
0 9 10 12 14 15 17 19 21 25 28 30 31 32 35 39 40 41 43 44 47 49 50 52 54
1 9 10 12 15 18 19 20 22 23 25 30 32 33 39 40 41 43 45 47 50 54
2 9 11 13 14 17 19 20 21 23 25 27 31 32 35 37 38 39 40 41 43 44 45 47 49 50 52 54
3 10 11 12 17 20 24 36 37 38 40 44 49 50 51 52 53 54
4 10 11 12 13 15 21 22 29 32 33 35 36 39 44 46 47 49 50 54
5 9 10 12 14 17 19 20 23 24 26 31 32 34 39 42 44 47 54
6 9 11 13 22 23 25 27 29 31 35 38 42 43
7 15 16 18 21 24 25 27 29 31 33 34 41 43 44 47 48 50
8 36
